webassembly/ejemplos_dzn/14/folder14_json_53.dzn
TERM = { '.', 's(5)', 's(2)', 's(4)', 'in_1', 'local_0', 'local_1', 'in_6', 'in_2', 'in_4', 'in_3', 's(6)', 's(1)', 's(0)', 's(7)', 'in_5', 's(3)', 'in_0'};
null = '.';
s = 14;
n = 12;
ndeps = 8;
max_registers_sz = 5;
NR = 2;
registers = [|'local_0', 'in_0', |'local_1', 'in_6'|];
dependencies = [|'i32.load16_s_1', 'i32.store16_3', |'i32.store16_3', 'call[function_index(0)]_4', |'call[function_index(0)]_4', 'i32.store8_7', |'i32.store8_7', 'i32.load16_u_11', |'i32.store8_7', 'i32.load16_s_8', |'i32.store8_7', 'i32.load16_s_9', |'i32.store8_7', 'i32.load16_s_10', |'i32.load8_u_2', 'i32.store16_3'|];
GET_ENUM = { GET1, GET2, GET3, GET4, GET5, GET6, GET7};
SET_ENUM = { SET1, SET2, SET3, SET4, SET5, SET6, SET7};
TEE_ENUM = { TEE1, TEE2, TEE3, TEE4, TEE5, TEE6, TEE7};
N = 9;
OP = { 'call[function_index(0)]_4', 'i32.load16_s_1', 'i32.load8_u_2', 'i32.store16_3', 'i32.store8_7', 'i32.load16_s_8', 'i32.load16_s_9', 'i32.load16_s_10', 'i32.load16_u_11' };
in_ops = [2, 1, 1, 2, 2, 1, 1, 1, 1 ];
out_ops = [2, 1, 1, 0, 0, 1, 1, 1, 1 ];
in1 = ['in_2', 'in_0', 's(0)', 's(1)', 's(2)', 'in_5', 's(4)', 's(5)', 's(6)' ];
in2 = ['in_3', '.', '.', 'in_1', 'in_4', '.', '.', '.', '.' ];
in3 = ['.', '.', '.', '.', '.', '.', '.', '.', '.' ];
out1 = ['s(3)', 's(0)', 's(1)', '.', '.', 's(4)', 's(5)', 's(6)', 's(7)' ];
out2 = ['s(2)', '.', '.', '.', '.', '.', '.', '.', '.' ];
out3 = ['.', '.', '.', '.', '.', '.', '.', '.', '.' ];
comm = [false, false, false, false, false, false, false, false, false ];
gas = [1, 1, 1, 1, 1, 1, 1, 1, 1 ];
sz = [1, 1, 1, 1, 1, 1, 1, 1, 1 ];
stor = [true, false, false, true, true, false, false, false, false ];
lb = [ 1, 1, 1, 1, 1, 1, 1, 1, 1 ];
ub = [ 14, 14, 14, 14, 14, 14, 14, 14, 14 ];
startstack = [ 'in_0', 'in_1', 'in_2', 'in_3', 'in_4', 'in_5', 'in_6', null, null, null, null, null ];
endstack = [ 'in_6', null, null, null, null, null, null, null, null, null, null, null ];
