webassembly/ejemplos_results/folder14_json_53.txt
value = 14;
fgas = [1, 1, 1, 1, 1, 2, 1, 1, 1, 1, 1, 1, 1, 1];
fsize = [1, 1, 1, 1, 1, 1, 1, 1, 1, 1, 1, 1, 1, 1];
states = 
[|   in_0,   in_1, in_2, in_3, in_4, in_5, in_6, '.', '.', '.', '.', '.'
 |   in_0,   in_1, in_2, in_3, in_4, in_5, in_6, '.', '.', '.', '.', '.'
 | 's(0)',   in_1, in_2, in_3, in_4, in_5, in_6, '.', '.', '.', '.', '.'
 | 's(1)',   in_1, in_2, in_3, in_4, in_5, in_6, '.', '.', '.', '.', '.'
 |   in_2,   in_3, in_4, in_5, in_6,  '.',  '.', '.', '.', '.', '.', '.'
 | 's(3)', 's(2)', in_4, in_5, in_6,  '.',  '.', '.', '.', '.', '.', '.'
 | 's(2)',   in_4, in_5, in_6,  '.',  '.',  '.', '.', '.', '.', '.', '.'
 |   in_5,   in_6,  '.',  '.',  '.',  '.',  '.', '.', '.', '.', '.', '.'
 | 's(4)',   in_6,  '.',  '.',  '.',  '.',  '.', '.', '.', '.', '.', '.'
 | 's(5)',   in_6,  '.',  '.',  '.',  '.',  '.', '.', '.', '.', '.', '.'
 | 's(6)',   in_6,  '.',  '.',  '.',  '.',  '.', '.', '.', '.', '.', '.'
 | 's(7)',   in_6,  '.',  '.',  '.',  '.',  '.', '.', '.', '.', '.', '.'
 |   in_6,    '.',  '.',  '.',  '.',  '.',  '.', '.', '.', '.', '.', '.'
 |   in_6,    '.',  '.',  '.',  '.',  '.',  '.', '.', '.', '.', '.', '.'
 |   in_6,    '.',  '.',  '.',  '.',  '.',  '.', '.', '.', '.', '.', '.'
 |];
register_states = 
[| local_0, local_1, '.', '.', '.', '.',  '.'
 |    in_0, local_1, '.', '.', '.', '.',  '.'
 |    in_0, local_1, '.', '.', '.', '.',  '.'
 |    in_0, local_1, '.', '.', '.', '.',  '.'
 |    in_0, local_1, '.', '.', '.', '.',  '.'
 |    in_0, local_1, '.', '.', '.', '.',  '.'
 |    in_0, local_1, '.', '.', '.', '.',  '.'
 |    in_0, local_1, '.', '.', '.', '.',  '.'
 |    in_0, local_1, '.', '.', '.', '.',  '.'
 |    in_0, local_1, '.', '.', '.', '.',  '.'
 |    in_0, local_1, '.', '.', '.', '.',  '.'
 |    in_0, local_1, '.', '.', '.', '.',  '.'
 |    in_0,  's(7)', '.', '.', '.', '.',  '.'
 |    in_0,    in_6, '.', '.', '.', '.',  '.'
 |    in_0,    in_6, '.', '.', '.', '.', in_6
 |];
program = [TEE(TEE1), O('i32.load16_s_1'), O('i32.load8_u_2'), O('i32.store16_3'), O('call[function_index(0)]_4'), POP, O('i32.store8_7'), O('i32.load16_s_8'), O('i32.load16_s_9'), O('i32.load16_s_10'), O('i32.load16_u_11'), S(SET2), TEE(TEE2), TEE(TEE7)];
% time elapsed: 0.63 s
----------
value = 13;
fgas = [1, 1, 1, 1, 1, 2, 1, 1, 1, 1, 1, 1, 1, 0];
fsize = [1, 1, 1, 1, 1, 1, 1, 1, 1, 1, 1, 1, 1, 1];
states = 
[|   in_0,   in_1, in_2, in_3, in_4, in_5, in_6, '.', '.', '.', '.', '.'
 |   in_0,   in_1, in_2, in_3, in_4, in_5, in_6, '.', '.', '.', '.', '.'
 | 's(0)',   in_1, in_2, in_3, in_4, in_5, in_6, '.', '.', '.', '.', '.'
 | 's(1)',   in_1, in_2, in_3, in_4, in_5, in_6, '.', '.', '.', '.', '.'
 |   in_2,   in_3, in_4, in_5, in_6,  '.',  '.', '.', '.', '.', '.', '.'
 | 's(3)', 's(2)', in_4, in_5, in_6,  '.',  '.', '.', '.', '.', '.', '.'
 | 's(2)',   in_4, in_5, in_6,  '.',  '.',  '.', '.', '.', '.', '.', '.'
 |   in_5,   in_6,  '.',  '.',  '.',  '.',  '.', '.', '.', '.', '.', '.'
 | 's(4)',   in_6,  '.',  '.',  '.',  '.',  '.', '.', '.', '.', '.', '.'
 | 's(5)',   in_6,  '.',  '.',  '.',  '.',  '.', '.', '.', '.', '.', '.'
 | 's(6)',   in_6,  '.',  '.',  '.',  '.',  '.', '.', '.', '.', '.', '.'
 | 's(7)',   in_6,  '.',  '.',  '.',  '.',  '.', '.', '.', '.', '.', '.'
 |   in_6,    '.',  '.',  '.',  '.',  '.',  '.', '.', '.', '.', '.', '.'
 |   in_6,    '.',  '.',  '.',  '.',  '.',  '.', '.', '.', '.', '.', '.'
 |   in_6,    '.',  '.',  '.',  '.',  '.',  '.', '.', '.', '.', '.', '.'
 |];
register_states = 
[| local_0, local_1, '.', '.', '.', '.', '.'
 |    in_0, local_1, '.', '.', '.', '.', '.'
 |    in_0, local_1, '.', '.', '.', '.', '.'
 |    in_0, local_1, '.', '.', '.', '.', '.'
 |    in_0, local_1, '.', '.', '.', '.', '.'
 |    in_0, local_1, '.', '.', '.', '.', '.'
 |    in_0, local_1, '.', '.', '.', '.', '.'
 |    in_0, local_1, '.', '.', '.', '.', '.'
 |    in_0, local_1, '.', '.', '.', '.', '.'
 |    in_0, local_1, '.', '.', '.', '.', '.'
 |    in_0, local_1, '.', '.', '.', '.', '.'
 |    in_0, local_1, '.', '.', '.', '.', '.'
 |    in_0,  's(7)', '.', '.', '.', '.', '.'
 |    in_0,    in_6, '.', '.', '.', '.', '.'
 |    in_0,    in_6, '.', '.', '.', '.', '.'
 |];
program = [TEE(TEE1), O('i32.load16_s_1'), O('i32.load8_u_2'), O('i32.store16_3'), O('call[function_index(0)]_4'), POP, O('i32.store8_7'), O('i32.load16_s_8'), O('i32.load16_s_9'), O('i32.load16_s_10'), O('i32.load16_u_11'), S(SET2), TEE(TEE2), NOP];
% time elapsed: 0.65 s
----------
==========
% time elapsed: 0.69 s
% [value > 12]
